100
128
56
2
22
4
21
6
56
23
39
39
26
4
40
3
35
48
57
54
8
11
57
16
38
36
48
31
32
41
15
17
46
10
2
12
20
22
18
14
42
49
24
47
40
45
14
15
35
50
12
32
37
2
25
35
12
21
35
45
18
35
19
16
32
1
28
28
28
26
53
21
1
14
38
18
35
25
2
33
16
49
41
38
2
18
37
17
46
19
53
1
2
22
18
25
4
45
31
2
38
44